knapPI_16_20_1000_1
n 20
c 994
z 2291
time 0.00
1,403,94,0
2,886,506,0
3,814,416,1
4,1151,992,0
5,983,649,0
6,629,237,1
7,848,457,0
8,1074,815,0
9,839,446,0
10,819,422,0
11,1062,791,0
12,762,359,0
13,994,667,0
14,950,598,0
15,111,7,1
16,914,544,0
17,737,334,1
18,1049,766,0
19,1152,994,0
20,1110,893,0
